EVRP-TW-SPD dataset generation/evrptwspd_instances/small_instances/Cplex10er/rc201C10.txt
StringID	Type	x	y	Delivery	Pickup	ReadyTime	DueDate	ServiceTime
D0	d	40.0	50.0	0.0	0.0	0.0	960.0	0.0
S0	f	40.0	50.0	0.0	0.0	0.0	960.0	0.0
S3	f	57.0	82.0	0.0	0.0	0.0	960.0	0.0
S9	f	14.0	59.0	0.0	0.0	0.0	960.0	0.0
S15	f	39.0	26.0	0.0	0.0	0.0	960.0	0.0
C98	c	26.0	52.0	4.5	4.5	218.0	338.0	10.0
C14	c	5.0	45.0	1.1111111111111112	8.88888888888889	198.0	318.0	10.0
C81	c	49.0	58.0	8.448275862068966	1.5517241379310338	784.0	904.0	10.0
C88	c	24.0	58.0	7.862068965517241	11.137931034482758	561.0	681.0	10.0
C62	c	65.0	35.0	1.6153846153846154	1.3846153846153846	138.0	258.0	10.0
C43	c	55.0	85.0	12.941176470588236	7.0588235294117645	102.0	222.0	10.0
C93	c	61.0	52.0	2.5573770491803276	0.4426229508196724	317.0	437.0	10.0
C22	c	40.0	15.0	15.0	25.0	621.0	741.0	10.0
C54	c	55.0	60.0	14.666666666666666	1.333333333333334	557.0	677.0	10.0
C79	c	6.0	68.0	2.647058823529412	27.352941176470587	39.0	159.0	10.0

Q Vehicle fuel tank capacity /77.75/
C Vehicle load capacity /1000.0/
r fuel consumption rate /1.0/
g inverse refueling rate /0.39/
v average Velocity /1.0/
